valores_iniciales=[|
0, 6, 1, 3, 0, 4, 8, 0, 0|
0, 0, 0, 0, 6, 0, 5, 1, 4|
4, 2, 9, 0, 8, 5, 3, 0, 0|
0, 0, 0, 7, 5, 3, 0, 8, 2|
0, 0, 0, 0, 0, 8, 0, 0, 3|
0, 0, 0, 4, 0, 0, 0, 0, 1|
9, 0, 4, 5, 3, 1, 0, 7, 0|
2, 5, 0, 0, 0, 9, 0, 0, 0|
0, 1, 0, 8, 0, 7, 0, 4, 5|];